1 636030407
2 636030407
3 636030407
4 636030407
5 635545993
6 635545993
7 635545993
8 635545993
9 635545993
10 635545993
11 633507126
12 633507126
13 633507126
14 633507126
15 633507126
16 623561040
17 623561040
18 623561040
19 623561040
20 623561040
21 623561040
22 623561040
23 623561040
24 623561040
25 623561040
26 623561040
27 623561040
28 623561040
29 623561040
30 623561040
31 623561040
32 623561040
33 623561040
34 623561040
35 623561040
36 623561040
37 623561040
38 623561040
39 623561040
40 623561040
41 623561040
42 623561040
43 623561040
44 623561040
45 623561040
46 623561040
47 623561040
48 623561040
49 623561040
50 623561040
51 623561040
52 622377380
53 612078336
54 612078336
55 612078336
56 612078336
57 612078336
58 612078336
59 612078336
60 612078336
61 612078336
62 612078336
63 612078336
64 612078336
65 612078336
66 612078336
67 612078336
68 612078336
69 612078336
70 612078336
71 612078336
72 612078336
73 612078336
74 612078336
75 612078336
76 612078336
77 612078336
78 612078336
79 612078336
80 612078336
81 612078336
82 612078336
83 612078336
84 612078336
85 612078336
86 612078336
87 612078336
88 612078336
89 612078336
90 612078336
91 612078336
92 612078336
93 612078336
94 607718709
95 607718709
96 607718709
97 607718709
98 607718709
99 607718709
100 607718709
101 607718709
102 606337844
103 606337844
104 606337844
105 606337844
106 606337844
107 606337844
108 606337844
109 606337844
110 606337844
111 606337844
112 606337844
113 606337844
114 606337844
115 606337844
116 602945274
117 602945274
118 602945274
119 602945274
120 602945274
121 602945274
122 602945274
123 602945274
124 602945274
125 602945274
126 602945274
127 602945274
128 602945274
129 602945274
130 602945274
131 602945274
132 602945274
133 602945274
134 602945274
135 602945274
136 602945274
137 602945274
138 602945274
139 602945274
140 602945274
141 602945274
142 602945274
143 602945274
144 601797610
145 601797610
146 601797610
147 601797610
148 601797610
149 601797610
150 601797610
151 601797610
152 601797610
153 601797610
154 601797610
155 601797610
156 601797610
157 601797610
158 601797610
159 601797610
160 601797610
161 601797610
162 601797610
163 601797610
164 601797610
165 601797610
166 601797610
167 601797610
168 601797610
169 601797610
170 601797610
171 601797610
172 601797610
173 601797610
174 601797610
175 601797610
176 601797610
177 601797610
178 601797610
179 601797610
180 601797610
181 601797610
182 601797610
183 601797610
184 601797610
185 601797610
186 601797610
187 601797610
188 601797610
189 601797610
190 601797610
191 601797610
192 601797610
193 600774114
194 600774114
195 600774114
196 600774114
197 600774114
198 600774114
199 600774114
200 600774114
201 600774114
202 600774114
203 600774114
204 582202312
205 582202312
206 582202312
207 582202312
208 582202312
209 582202312
210 582202312
211 582202312
212 582202312
213 582202312
214 582202312
215 582202312
216 582202312
217 582202312
218 582202312
219 582202312
220 582202312
221 582202312
222 582202312
223 582202312
224 582202312
225 582202312
226 582202312
227 582202312
228 582202312
229 582202312
230 582202312
231 582202312
232 582202312
233 582202312
234 582202312
235 582202312
236 582202312
237 582202312
238 582202312
239 582202312
240 582202312
241 582202312
242 582202312
243 582202312
244 582202312
245 582202312
246 582202312
247 582202312
248 582202312
249 582202312
250 582202312
